(set-logic QF_AUFNIA)
(declare-sort mysort 0)
(declare-fun i () Int)
(declare-fun j () Int)
(declare-fun k () Int)
(declare-fun l () Int)
(declare-fun m () Int)
(declare-fun n () Int)
(declare-fun s () mysort)
(declare-fun arr () (Array mysort mysort))
(declare-fun a () (Array Int (Array Int Int)))
(declare-fun b () (Array Int (Array Int Int)))
(declare-fun c () (Array Int (Array Int Int)))
(declare-fun d () (Array Int (Array Int Int)))
(declare-fun e () (Array Int (Array Int Int)))
(declare-fun f () (Array Int (Array Int Int)))
(declare-fun g () (Array Int (Array Int Int)))
(declare-fun h () (Array Int (Array Int Int)))
(assert (not (= arr arr)))
(assert (not (= s s)))
(assert (not (= k 0)))
(assert (<= j k))
(assert (>= j k))
(assert (<= i 0))
(assert (not (= i 0)))
(check-sat)
(exit)
